Maximize
 obj: 998.4000000000001 c0 + 2940.6000000000004 c1 + 1994.4 c2 + 28.0 c3 + 1933.4399999999998 c4 + 693.0 c5 + 5052.0 c6 + 1049.6000000000001 c7 + 1431.0 c8 + 3141.0 c9 + 3866.4000000000005 c10 + 910.0 c11 + 5365.36 c12 + 33550.2 c13 + 460.03999999999996 c14 + 761.6 c15 + 149.60000000000002 c16 + 3736.8 c17 + 30833.374000000003 c18 + 2349.0 c19 + 7965.984 c20 + 469.8 c21 + 1300.8000000000002 c22 + 7467.200000000001 c23 + 2656.8 c24 + 3780.0 c25 + 963.2 c26 + 4536.0 c27 + 124.80000000000001 c28 + 696.0 c29 + 7278.894 c30 + 62401.89 c31 + 3705.0 c32 + 1386.0 c33 + 5454.0 c34 + 5173.0 c35 + 1092.0 c36 + 6760.8 c37 + 2052.0 c38 + 27041.0 c39 + 17765.0 c40 + 1132.8 c41 + 1640.16 c42 + 3500.0 c43 + 3856.0 c44 + 1456.0 c45 + 3244.6700000000005 c46 + 17455.600000000002 c47 + 492.8 c48 + 47228.4 c49 + 1645.0 c50 + 336.0 c51 + 4555.2 c52 + 1082.4 c53 + 900.0 c54 + 5588.0 c55 + 4680.0 c56 + 659.4000000000001 c57 + 7042.200000000001 c58 + 1830.6 c59 + 169280.0 c60 + 888.0000000000001 c61 + 58474.0 c62 + 14875.938000000002 c63 + 61.2 c64 + 42.0 c65 + 11361.6 c66 + 201.6 c67 + 6987.6 c68 + 1428.0 c69 + 2317.7 c70 + 2217.6000000000004 c71 + 218.40000000000003 c72 + 600.0 c73 + 5346.6 c74 + 143.0 c75 + 8068.8 c76 + 1478.4 c77 + 81.60000000000001 c78 + 5096.0 c79 + 972.0 c80 + 5616.0 c81 + 1458.6000000000001 c82 + 2675.2000000000003 c83 + 25865.600000000002 c84 + 6160.0 c85 + 9077.4 c86 + 63625.224 c87 + 26632.800000000003 c88 + 38454.0 c89 + 1169.0 c90 + 1019.24 c91 + 1125.0 c92 + 11776.336000000001 c93 + 1690.0 c94 + 3231.0 c95 + 374.0 c96 + 2555.0 c97 + 450.0 c98 + 2918.4 c99 + 15368.000000000002 c100 + 50731.200000000004 c101 + 4327.584000000001 c102 + 11265.144 c103 + 2735.2000000000003 c104 + 2332.0 c105 + 712.8 c106 + 6572.720000000001 c107 + 144.0 c108 + 4256.0 c109 + 1216.0 c110 + 1190.0 c111 + 13125.0 c112 + 4983.0 c113 + 16484.832000000002 c114 + 672.0 c115 + 6516.0 c116 + 1663.2 c117 + 410.4 c118 + 489.6 c119 + 16852.0 c120 + 1188.0 c121 + 2145.0 c122 + 256.0 c123 + 96517.20000000001 c124 + 2511.0 c125 + 1646.4 c126 + 4150.0 c127 + 444.0 c128 + 19189.800000000003 c129 + 3582.6000000000004 c130 + 45761.994000000006 c131 + 14058.0 c132 + 11040.0 c133 + 4204.8 c134 + 9467.28 c135 + 16286.592 c136 + 5940.0 c137 + 1519.2 c138 + 9744.0 c139 + 55164.0 c140 + 41457.600000000006 c141 + 142430.4 c142 + 13453.0 c143 + 91408.8 c144 + 5487.0 c145 + 126.0 c146 + 77.0 c147 + 1603.2 c148 + 88.0 c149 + 0.0 c150 + 7019.6 c151 + 10086.0 c152 + 637.0 c153 + 10728.0 c154 + 19733.024 c155 + 3440.0 c156 + 966.6 c157 + 2745.6000000000004 c158 + 876.0 c159 + 1529.2800000000002 c160 + 15780.0 c161 + 6067.200000000001 c162 + 123153.6 c163 + 36995.0 c164 + 29702.4 c165 + 224.40000000000003 c166 + 1168.6399999999999 c167 + 304.64000000000004 c168 + 12781.8 c169 + 4507.860000000001 c170 + 129093.156 c171 + 22396.800000000003 c172 + 3829.8 c173 + 297.6 c174 + 6489.6 c175 + 200.0 c176 + 4379.08 c177 + 1522.22 c178 + 3354.0 c179 + 7488.0 c180 + 7953.6 c181 + 615.6 c182 + 17423.168000000005 c183 + 624.0 c184 + 155626.752 c185 + 71553.6 c186 + 29361.600000000002 c187 + 10692.0 c188 + 2250.0 c189 + 28703.999999999993 c190 + 21110.4 c191 + 2607.0 c192 + 6208.0 c193 + 432.0 c194 + 5587.200000000001 c195 + 94600.662 c196 + 136.0 c197 + 8280.0 c198 + 1964.256 c199 + 3441.6000000000004 c200 + 112.0 c201 + 3762.0 c202 + 7604.160000000001 c203 + 1478.4 c204 + 11836.8 c205 + 47371.14000000001 c206 + 1554.6480000000001 c207 + 152.0 c208 + 11026.8 c209 + 101156.4 c210 + 20851.2 c211 + 1776.0000000000002 c212 + 2336.4 c213 + 13860.0 c214 + 152818.848 c215 + 6790.4000000000015 c216 + 4725.6 c217 + 8499.6 c218 + 6864.0 c219 + 56842.8 c220 + 7993.6 c221 + 9015.6 c222 + 588.0 c223 + 1440.0 c224 + 124.80000000000001 c225 + 87438.0 c226 + 9975.0 c227 + 168.0 c228 + 26995.2 c229 + 1032.0 c230 + 13821.600000000002 c231 + 47963.748 c232 + 11625.6 c233 + 89012.76800000001 c234 + 38316.0 c235 + 5148.0 c236 + 3007.2000000000003 c237 + 2419.2000000000003 c238 + 5925.6 c239 + 1016.4000000000001 c240 + 40.0 c241 + 374.0 c242 + 43756.8 c243 + 204.0 c244 + 18052.2 c245 + 888.0 c246 + 7787.5199999999995 c247 + 5176.0 c248 + 3181.2 c249 + 4400.0 c250 + 6211.200000000001 c251 + 36667.8 c252 + 8262.0 c253 + 5740.8 c254 + 224628.00000000003 c255 + 6402.0 c256 + 109013.37600000002 c257 + 3449.6000000000004 c258 + 4252.8 c259 + 1755.0 c260 + 51.2 c261 + 61.60000000000001 c262 + 4116.0 c263 + 3523.0 c264 + 79975.20000000001 c265 + 16309.800000000003 c266 + 1419.6 c267 + 6142.0 c268 + 53270.008 c269 + 11334.048000000003 c270 + 1683.0 c271 + 8062.200000000001 c272 + 4960.8 c273 + 942.0 c274 + 4576.0 c275 + 336.0 c276 + 26503.2 c277 + 1536.0000000000002 c278 + 1824.0 c279 + 24849.600000000002 c280 + 1821.6 c281 + 3641.4000000000005 c282 + 30450.0 c283 + 2739.0 c284 + 1570.4 c285 + 17001.600000000002 c286 + 2796.8 c287 + 8173.200000000001 c288 + 8820.0 c289 + 29304.576 c290 + 3859.2000000000003 c291 + 3081.0 c292 + 125985.0 c293 + 1198.4 c294 + 28025.856000000003 c295 + 1512.0000000000002 c296 + 5112.0 c297 + 4549.6 c298 + 42408.0 c299 + 6188.0 c300 + 2228.4 c301 + 4844.8 c302 + 1102.0 c303 + 23472.0 c304 + 799.2 c305 + 931.2 c306 + 1042.2 c307 + 66513.6 c308 + 5707.200000000001 c309 + 1679.4 c310 + 26237.200000000004 c311 + 124.80000000000001 c312 + 4540.0 c313 + 3848.0 c314 + 6048.0 c315 + 230.40000000000003 c316 + 2124.0 c317 + 32914.200000000004 c318 + 24480.0 c319 + 121.0 c320 + 35019.56 c321 + 1064.06 c322 + 33436.8 c323 + 372.0 c324 + 264.0 c325 + 4118.688 c326 + 16176.600000000002 c327 + 4642.0 c328 + 13840.0 c329 + 5023.200000000001 c330 + 468.0 c331 + 21097.152000000002 c332 + 16568.0 c333 + 23476.068 c334 + 121.0 c335 + 4930.200000000001 c336 + 15912.0 c337 + 3913.0 c338 + 2380.8 c339 + 6912.0 c340 + 58387.520000000004 c341 + 11684.400000000001 c342 + 40276.8 c343 + 184.8 c344 + 12539.999999999998 c345 + 492.0 c346 + 0
Subject To
map_count: m0 + m1 + m2 + m3 + m4 + m5 + m6 + m7 + m8 + m9 + m10 + m11 + m12 + m13 + m14 + m15 + m16 + m17 + m18 + m19 + m20 + m21 + m22 + m23 + m24 + m25 + m26 + m27 + m28 + m29 + m30 + m31 + m32 + m33 + m34 + m35 + m36 + m37 + m38 + m39 + m40 + m41 + m42 + m43 + m44 + m45 + m46 + m47 + m48 + m49 + m50 + m51 + m52 + m53 + m54 + m55 + m56 + m57 + m58 + m59 + m60 + m61 + m62 + m63 + m64 + m65 + m66 + m67 + m68 + m69 + m70 + m71 + m72 + m73 + m74 + m75 + m76 + m77 + m78 + m79 + m80 + m81 + m82 + m83 + m84 + m85 + m86 + m87 + m88 + m89 + m90 + m91 + m92 + m93 + m94 + m95 + m96 + m97 + m98 + m99 + m100 + m101 + m102 + m103 + m104 + m105 + m106 + m107 + m108 + m109 + m110 + m111 + m112 + m113 + m114 + m115 + m116 + 0 <= 12
inc0: - c0 + m0 + m1 + m2 + m3 >= 0
inc1: - c1 + m4 + m5 + m6 >= 0
inc2: - c2 >= 0
inc3: - c3 >= 0
inc4: - c4 >= 0
inc5: - c5 >= 0
inc6: - c6 >= 0
inc7: - c7 + m7 + m8 + m9 >= 0
inc8: - c8 + m13 + m14 + m15 + m16 + m17 + m18 + m19 + m98 >= 0
inc9: - c9 + m56 >= 0
inc10: - c10 + m7 + m8 + m9 >= 0
inc11: - c11 >= 0
inc12: - c12 >= 0
inc13: - c13 >= 0
inc14: - c14 >= 0
inc15: - c15 >= 0
inc16: - c16 >= 0
inc17: - c17 + m28 + m29 >= 0
inc18: - c18 + m30 + m31 + m32 >= 0
inc19: - c19 + m33 >= 0
inc20: - c20 + m29 >= 0
inc21: - c21 >= 0
inc22: - c22 >= 0
inc23: - c23 + m25 >= 0
inc24: - c24 + m7 + m8 + m9 >= 0
inc25: - c25 >= 0
inc26: - c26 + m11 + m13 + m15 + m19 + m35 >= 0
inc27: - c27 >= 0
inc28: - c28 >= 0
inc29: - c29 >= 0
inc30: - c30 >= 0
inc31: - c31 + m40 + m41 + m42 >= 0
inc32: - c32 + m40 + m41 + m42 >= 0
inc33: - c33 + m36 + m37 + m38 >= 0
inc34: - c34 >= 0
inc35: - c35 + m11 + m13 + m15 + m19 + m35 >= 0
inc36: - c36 + m43 >= 0
inc37: - c37 + m0 + m23 + m27 >= 0
inc38: - c38 >= 0
inc39: - c39 >= 0
inc40: - c40 + m39 >= 0
inc41: - c41 >= 0
inc42: - c42 + m4 + m5 + m6 >= 0
inc43: - c43 >= 0
inc44: - c44 + m5 >= 0
inc45: - c45 >= 0
inc46: - c46 + m44 >= 0
inc47: - c47 + m40 + m41 + m42 >= 0
inc48: - c48 >= 0
inc49: - c49 >= 0
inc50: - c50 >= 0
inc51: - c51 + m39 >= 0
inc52: - c52 + m45 + m46 >= 0
inc53: - c53 >= 0
inc54: - c54 >= 0
inc55: - c55 >= 0
inc56: - c56 >= 0
inc57: - c57 + m47 + m48 >= 0
inc58: - c58 + m1 + m33 + m39 >= 0
inc59: - c59 >= 0
inc60: - c60 >= 0
inc61: - c61 >= 0
inc62: - c62 >= 0
inc63: - c63 + m95 >= 0
inc64: - c64 >= 0
inc65: - c65 >= 0
inc66: - c66 + m32 + m49 + m50 >= 0
inc67: - c67 >= 0
inc68: - c68 + m7 + m8 + m9 >= 0
inc69: - c69 + m5 + m51 >= 0
inc70: - c70 + m51 >= 0
inc71: - c71 >= 0
inc72: - c72 >= 0
inc73: - c73 >= 0
inc74: - c74 >= 0
inc75: - c75 >= 0
inc76: - c76 >= 0
inc77: - c77 + m55 + m56 + m57 + m58 + m59 >= 0
inc78: - c78 + m17 + m60 >= 0
inc79: - c79 >= 0
inc80: - c80 + m11 + m13 + m15 + m19 + m35 >= 0
inc81: - c81 >= 0
inc82: - c82 >= 0
inc83: - c83 + m33 >= 0
inc84: - c84 + m0 + m1 + m2 + m3 + m4 + m5 + m6 + m7 + m8 + m9 + m10 + m11 + m12 + m13 + m14 + m15 + m16 + m17 + m18 + m19 + m20 + m21 + m22 + m23 + m24 + m25 + m26 + m27 + m28 + m29 + m30 + m31 + m32 + m33 + m34 + m35 + m36 + m37 + m38 + m39 + m40 + m41 + m42 + m43 + m44 + m45 + m46 + m47 + m48 + m49 + m50 + m51 + m52 + m53 + m54 + m55 + m56 + m57 + m58 + m59 + m60 + m61 + m62 + m63 + m64 + m65 + m66 + m67 + m68 + m69 + m70 + m71 + m72 + m73 + m74 + m75 + m76 + m77 + m78 + m79 + m80 + m81 + m82 + m83 + m84 + m85 + m86 + m87 + m88 + m89 + m90 + m91 + m92 + m93 + m94 + m95 + m96 + m97 + m98 + m99 + m100 + m101 + m102 + m103 + m104 + m105 + m106 + m107 + m108 + m109 + m110 + m111 + m112 + m113 + m114 + m115 + m116 >= 0
inc85: - c85 + m28 + m30 + m31 + m48 + m79 + m83 + m89 + m107 + m110 >= 0
inc86: - c86 + m0 + m1 + m2 + m3 + m4 + m5 + m6 + m7 + m8 + m9 + m10 + m11 + m12 + m13 + m14 + m15 + m16 + m17 + m18 + m19 + m20 + m21 + m22 + m23 + m24 + m25 + m26 + m27 + m28 + m29 + m30 + m31 + m32 + m33 + m34 + m35 + m36 + m37 + m38 + m39 + m40 + m41 + m42 + m43 + m44 + m45 + m46 + m47 + m48 + m49 + m50 + m51 + m52 + m53 + m54 + m55 + m56 + m57 + m58 + m59 + m60 + m61 + m62 + m63 + m64 + m65 + m66 + m67 + m68 + m69 + m70 + m71 + m72 + m73 + m74 + m75 + m76 + m77 + m78 + m79 + m80 + m81 + m82 + m83 + m84 + m85 + m86 + m87 + m88 + m89 + m90 + m91 + m92 + m93 + m94 + m95 + m96 + m97 + m98 + m99 + m100 + m101 + m102 + m103 + m104 + m105 + m106 + m107 + m108 + m109 + m110 + m111 + m112 + m113 + m114 + m115 + m116 >= 0
inc87: - c87 >= 0
inc88: - c88 >= 0
inc89: - c89 + m2 + m16 + m78 >= 0
inc90: - c90 >= 0
inc91: - c91 >= 0
inc92: - c92 >= 0
inc93: - c93 + m7 + m8 + m9 >= 0
inc94: - c94 >= 0
inc95: - c95 >= 0
inc96: - c96 >= 0
inc97: - c97 + m47 + m84 >= 0
inc98: - c98 >= 0
inc99: - c99 + m48 + m96 + m114 >= 0
inc100: - c100 + m0 + m1 + m2 + m3 + m4 + m5 + m6 + m7 + m8 + m9 + m10 + m11 + m12 + m13 + m14 + m15 + m16 + m17 + m18 + m19 + m20 + m21 + m22 + m23 + m24 + m25 + m26 + m27 + m28 + m29 + m30 + m31 + m32 + m33 + m34 + m35 + m36 + m37 + m38 + m39 + m40 + m41 + m42 + m43 + m44 + m45 + m46 + m47 + m48 + m49 + m50 + m51 + m52 + m53 + m54 + m55 + m56 + m57 + m58 + m59 + m60 + m61 + m62 + m63 + m64 + m65 + m66 + m67 + m68 + m69 + m70 + m71 + m72 + m73 + m74 + m75 + m76 + m77 + m78 + m79 + m80 + m81 + m82 + m83 + m84 + m85 + m86 + m87 + m88 + m89 + m90 + m91 + m92 + m93 + m94 + m95 + m96 + m97 + m98 + m99 + m100 + m101 + m102 + m103 + m104 + m105 + m106 + m107 + m108 + m109 + m110 + m111 + m112 + m113 + m114 + m115 + m116 >= 0
inc101: - c101 >= 0
inc102: - c102 >= 0
inc103: - c103 + m14 + m32 + m100 + m105 >= 0
inc104: - c104 + m0 + m1 + m2 + m3 + m4 + m5 + m6 + m7 + m8 + m9 + m10 + m11 + m12 + m13 + m14 + m15 + m16 + m17 + m18 + m19 + m20 + m21 + m22 + m23 + m24 + m25 + m26 + m27 + m28 + m29 + m30 + m31 + m32 + m33 + m34 + m35 + m36 + m37 + m38 + m39 + m40 + m41 + m42 + m43 + m44 + m45 + m46 + m47 + m48 + m49 + m50 + m51 + m52 + m53 + m54 + m55 + m56 + m57 + m58 + m59 + m60 + m61 + m62 + m63 + m64 + m65 + m66 + m67 + m68 + m69 + m70 + m71 + m72 + m73 + m74 + m75 + m76 + m77 + m78 + m79 + m80 + m81 + m82 + m83 + m84 + m85 + m86 + m87 + m88 + m89 + m90 + m91 + m92 + m93 + m94 + m95 + m96 + m97 + m98 + m99 + m100 + m101 + m102 + m103 + m104 + m105 + m106 + m107 + m108 + m109 + m110 + m111 + m112 + m113 + m114 + m115 + m116 >= 0
inc105: - c105 >= 0
inc106: - c106 >= 0
inc107: - c107 + m40 + m70 >= 0
inc108: - c108 >= 0
inc109: - c109 + m0 + m27 >= 0
inc110: - c110 + m49 + m50 + m68 >= 0
inc111: - c111 >= 0
inc112: - c112 + m5 + m8 + m12 + m29 + m33 + m39 + m40 + m44 + m50 + m51 + m52 + m55 + m56 + m62 + m63 + m69 + m95 + m112 >= 0
inc113: - c113 + m17 >= 0
inc114: - c114 + m94 >= 0
inc115: - c115 >= 0
inc116: - c116 + m66 + m78 >= 0
inc117: - c117 + m36 + m52 + m53 + m54 >= 0
inc118: - c118 >= 0
inc119: - c119 + m28 >= 0
inc120: - c120 >= 0
inc121: - c121 + m59 >= 0
inc122: - c122 + m13 + m22 + m70 + m112 >= 0
inc123: - c123 >= 0
inc124: - c124 + m36 + m52 + m53 + m54 >= 0
inc125: - c125 >= 0
inc126: - c126 >= 0
inc127: - c127 >= 0
inc128: - c128 >= 0
inc129: - c129 >= 0
inc130: - c130 + m8 >= 0
inc131: - c131 + m82 + m84 >= 0
inc132: - c132 >= 0
inc133: - c133 >= 0
inc134: - c134 >= 0
inc135: - c135 + m34 + m60 + m108 >= 0
inc136: - c136 + m14 + m25 + m40 + m42 + m50 + m52 + m90 + m105 + m110 + m114 >= 0
inc137: - c137 >= 0
inc138: - c138 >= 0
inc139: - c139 + m4 + m5 + m6 >= 0
inc140: - c140 + m29 >= 0
inc141: - c141 >= 0
inc142: - c142 + m82 + m83 + m84 + m89 >= 0
inc143: - c143 >= 0
inc144: - c144 >= 0
inc145: - c145 + m51 >= 0
inc146: - c146 >= 0
inc147: - c147 >= 0
inc148: - c148 + m10 + m12 + m43 + m61 + m69 >= 0
inc149: - c149 >= 0
inc150: - c150 >= 0
inc151: - c151 >= 0
inc152: - c152 >= 0
inc153: - c153 >= 0
inc154: - c154 >= 0
inc155: - c155 >= 0
inc156: - c156 >= 0
inc157: - c157 + m5 + m21 + m73 + m99 + m115 >= 0
inc158: - c158 >= 0
inc159: - c159 >= 0
inc160: - c160 >= 0
inc161: - c161 >= 0
inc162: - c162 >= 0
inc163: - c163 >= 0
inc164: - c164 >= 0
inc165: - c165 >= 0
inc166: - c166 + m18 + m24 + m55 + m56 + m69 + m71 + m98 + m105 >= 0
inc167: - c167 + m44 + m62 >= 0
inc168: - c168 >= 0
inc169: - c169 + m74 + m77 + m85 + m98 >= 0
inc170: - c170 >= 0
inc171: - c171 >= 0
inc172: - c172 + m14 + m25 + m40 + m42 + m50 + m90 + m105 + m114 >= 0
inc173: - c173 >= 0
inc174: - c174 >= 0
inc175: - c175 + m112 >= 0
inc176: - c176 + m28 + m29 + m95 + m113 >= 0
inc177: - c177 + m48 + m96 + m114 >= 0
inc178: - c178 + m51 >= 0
inc179: - c179 + m55 >= 0
inc180: - c180 >= 0
inc181: - c181 >= 0
inc182: - c182 + m55 + m104 >= 0
inc183: - c183 >= 0
inc184: - c184 + m24 + m56 + m71 + m88 >= 0
inc185: - c185 + m5 + m21 + m73 + m99 + m115 >= 0
inc186: - c186 + m55 >= 0
inc187: - c187 + m0 + m27 >= 0
inc188: - c188 + m0 + m1 + m2 + m3 + m4 + m5 + m6 + m7 + m8 + m9 + m10 + m11 + m12 + m13 + m14 + m15 + m16 + m17 + m18 + m19 + m20 + m21 + m22 + m23 + m24 + m25 + m26 + m27 + m28 + m29 + m30 + m31 + m32 + m33 + m34 + m35 + m36 + m37 + m38 + m39 + m40 + m41 + m42 + m43 + m44 + m45 + m46 + m47 + m48 + m49 + m50 + m51 + m52 + m53 + m54 + m55 + m56 + m57 + m58 + m59 + m60 + m61 + m62 + m63 + m64 + m65 + m66 + m67 + m68 + m69 + m70 + m71 + m72 + m73 + m74 + m75 + m76 + m77 + m78 + m79 + m80 + m81 + m82 + m83 + m84 + m85 + m86 + m87 + m88 + m89 + m90 + m91 + m92 + m93 + m94 + m95 + m96 + m97 + m98 + m99 + m100 + m101 + m102 + m103 + m104 + m105 + m106 + m107 + m108 + m109 + m110 + m111 + m112 + m113 + m114 + m115 + m116 >= 0
inc189: - c189 >= 0
inc190: - c190 >= 0
inc191: - c191 + m6 + m11 + m48 + m100 >= 0
inc192: - c192 + m74 + m77 + m85 + m98 >= 0
inc193: - c193 >= 0
inc194: - c194 >= 0
inc195: - c195 + m0 + m1 + m2 + m3 + m4 + m5 + m6 + m7 + m8 + m9 + m10 + m11 + m12 + m13 + m14 + m15 + m16 + m17 + m18 + m19 + m20 + m21 + m22 + m23 + m24 + m25 + m26 + m27 + m28 + m29 + m30 + m31 + m32 + m33 + m34 + m35 + m36 + m37 + m38 + m39 + m40 + m41 + m42 + m43 + m44 + m45 + m46 + m47 + m48 + m49 + m50 + m51 + m52 + m53 + m54 + m55 + m56 + m57 + m58 + m59 + m60 + m61 + m62 + m63 + m64 + m65 + m66 + m67 + m68 + m69 + m70 + m71 + m72 + m73 + m74 + m75 + m76 + m77 + m78 + m79 + m80 + m81 + m82 + m83 + m84 + m85 + m86 + m87 + m88 + m89 + m90 + m91 + m92 + m93 + m94 + m95 + m96 + m97 + m98 + m99 + m100 + m101 + m102 + m103 + m104 + m105 + m106 + m107 + m108 + m109 + m110 + m111 + m112 + m113 + m114 + m115 + m116 >= 0
inc196: - c196 >= 0
inc197: - c197 >= 0
inc198: - c198 + m33 + m39 + m47 + m72 + m82 + m84 + m92 >= 0
inc199: - c199 + m4 + m5 + m6 >= 0
inc200: - c200 >= 0
inc201: - c201 >= 0
inc202: - c202 >= 0
inc203: - c203 >= 0
inc204: - c204 + m109 >= 0
inc205: - c205 + m111 + m115 >= 0
inc206: - c206 + m39 + m60 + m106 >= 0
inc207: - c207 >= 0
inc208: - c208 >= 0
inc209: - c209 >= 0
inc210: - c210 + m0 + m20 + m21 + m22 + m24 + m26 + m27 >= 0
inc211: - c211 >= 0
inc212: - c212 + m39 >= 0
inc213: - c213 + m55 + m104 >= 0
inc214: - c214 + m44 + m62 + m63 >= 0
inc215: - c215 + m7 + m8 + m9 + m10 + m18 + m24 + m26 + m36 + m46 + m53 + m56 + m58 + m67 + m69 + m71 + m73 + m75 + m86 + m90 + m98 + m102 + m109 >= 0
inc216: - c216 + m95 >= 0
inc217: - c217 + m36 + m52 + m53 + m54 >= 0
inc218: - c218 + m0 + m1 + m2 + m3 + m4 + m5 + m6 + m7 + m8 + m9 + m10 + m11 + m12 + m13 + m14 + m15 + m16 + m17 + m18 + m19 + m20 + m21 + m22 + m23 + m24 + m25 + m26 + m27 + m28 + m29 + m30 + m31 + m32 + m33 + m34 + m35 + m36 + m37 + m38 + m39 + m40 + m41 + m42 + m43 + m44 + m45 + m46 + m47 + m48 + m49 + m50 + m51 + m52 + m53 + m54 + m55 + m56 + m57 + m58 + m59 + m60 + m61 + m62 + m63 + m64 + m65 + m66 + m67 + m68 + m69 + m70 + m71 + m72 + m73 + m74 + m75 + m76 + m77 + m78 + m79 + m80 + m81 + m82 + m83 + m84 + m85 + m86 + m87 + m88 + m89 + m90 + m91 + m92 + m93 + m94 + m95 + m96 + m97 + m98 + m99 + m100 + m101 + m102 + m103 + m104 + m105 + m106 + m107 + m108 + m109 + m110 + m111 + m112 + m113 + m114 + m115 + m116 >= 0
inc219: - c219 + m51 >= 0
inc220: - c220 >= 0
inc221: - c221 >= 0
inc222: - c222 + m47 + m48 >= 0
inc223: - c223 >= 0
inc224: - c224 >= 0
inc225: - c225 >= 0
inc226: - c226 >= 0
inc227: - c227 >= 0
inc228: - c228 + m29 + m95 + m113 >= 0
inc229: - c229 + m10 + m17 + m29 + m61 + m69 >= 0
inc230: - c230 >= 0
inc231: - c231 + m93 + m99 >= 0
inc232: - c232 + m50 >= 0
inc233: - c233 + m47 + m84 >= 0
inc234: - c234 >= 0
inc235: - c235 + m29 + m95 + m113 >= 0
inc236: - c236 >= 0
inc237: - c237 + m14 + m18 + m24 + m32 + m55 + m56 + m58 + m69 + m71 + m80 + m91 + m98 + m100 + m102 + m104 + m105 >= 0
inc238: - c238 + m59 >= 0
inc239: - c239 + m55 + m56 >= 0
inc240: - c240 + m101 >= 0
inc241: - c241 + m39 >= 0
inc242: - c242 + m69 >= 0
inc243: - c243 >= 0
inc244: - c244 + m30 + m79 + m82 + m84 + m89 + m92 + m108 >= 0
inc245: - c245 >= 0
inc246: - c246 >= 0
inc247: - c247 >= 0
inc248: - c248 + m17 + m29 + m33 + m38 + m39 + m47 + m48 + m82 + m83 + m89 + m96 + m114 >= 0
inc249: - c249 + m104 >= 0
inc250: - c250 >= 0
inc251: - c251 + m22 + m98 >= 0
inc252: - c252 >= 0
inc253: - c253 + m76 >= 0
inc254: - c254 + m11 + m32 >= 0
inc255: - c255 >= 0
inc256: - c256 >= 0
inc257: - c257 + m4 + m77 + m110 >= 0
inc258: - c258 >= 0
inc259: - c259 >= 0
inc260: - c260 >= 0
inc261: - c261 + m14 + m18 + m24 + m55 + m56 + m69 + m91 + m98 + m100 >= 0
inc262: - c262 + m55 >= 0
inc263: - c263 + m40 + m41 + m42 + m70 + m73 >= 0
inc264: - c264 + m14 + m32 + m100 + m105 >= 0
inc265: - c265 + m49 + m50 + m68 >= 0
inc266: - c266 + m30 + m31 + m32 >= 0
inc267: - c267 + m5 >= 0
inc268: - c268 + m36 + m37 + m52 + m53 + m54 >= 0
inc269: - c269 >= 0
inc270: - c270 >= 0
inc271: - c271 >= 0
inc272: - c272 >= 0
inc273: - c273 + m13 + m14 + m15 + m16 + m17 + m18 + m19 + m98 >= 0
inc274: - c274 >= 0
inc275: - c275 + m4 + m5 + m6 >= 0
inc276: - c276 >= 0
inc277: - c277 >= 0
inc278: - c278 + m29 >= 0
inc279: - c279 + m44 + m62 >= 0
inc280: - c280 >= 0
inc281: - c281 >= 0
inc282: - c282 + m34 + m49 >= 0
inc283: - c283 >= 0
inc284: - c284 + m36 + m56 + m76 >= 0
inc285: - c285 >= 0
inc286: - c286 >= 0
inc287: - c287 >= 0
inc288: - c288 + m30 + m31 + m32 >= 0
inc289: - c289 >= 0
inc290: - c290 >= 0
inc291: - c291 + m0 + m20 + m21 + m22 + m23 + m24 + m25 + m26 + m27 >= 0
inc292: - c292 >= 0
inc293: - c293 >= 0
inc294: - c294 + m13 + m22 + m70 + m112 >= 0
inc295: - c295 >= 0
inc296: - c296 >= 0
inc297: - c297 + m3 + m10 + m12 + m30 + m66 + m68 + m76 + m87 + m107 >= 0
inc298: - c298 + m61 + m69 >= 0
inc299: - c299 >= 0
inc300: - c300 + m5 + m51 + m77 + m99 + m110 + m115 >= 0
inc301: - c301 + m69 + m102 + m107 >= 0
inc302: - c302 + m29 >= 0
inc303: - c303 >= 0
inc304: - c304 + m21 + m44 + m73 + m74 >= 0
inc305: - c305 + m39 + m60 + m106 >= 0
inc306: - c306 + m111 + m115 >= 0
inc307: - c307 + m0 + m1 + m2 + m3 + m4 + m5 + m6 + m7 + m8 + m9 + m10 + m11 + m12 + m13 + m14 + m15 + m16 + m17 + m18 + m19 + m20 + m21 + m22 + m23 + m24 + m25 + m26 + m27 + m28 + m29 + m30 + m31 + m32 + m33 + m34 + m35 + m36 + m37 + m38 + m39 + m40 + m41 + m42 + m43 + m44 + m45 + m46 + m47 + m48 + m49 + m50 + m51 + m52 + m53 + m54 + m55 + m56 + m57 + m58 + m59 + m60 + m61 + m62 + m63 + m64 + m65 + m66 + m67 + m68 + m69 + m70 + m71 + m72 + m73 + m74 + m75 + m76 + m77 + m78 + m79 + m80 + m81 + m82 + m83 + m84 + m85 + m86 + m87 + m88 + m89 + m90 + m91 + m92 + m93 + m94 + m95 + m96 + m97 + m98 + m99 + m100 + m101 + m102 + m103 + m104 + m105 + m106 + m107 + m108 + m109 + m110 + m111 + m112 + m113 + m114 + m115 + m116 >= 0
inc308: - c308 + m34 + m108 >= 0
inc309: - c309 + m50 >= 0
inc310: - c310 >= 0
inc311: - c311 + m0 + m1 + m2 + m3 + m4 + m5 + m6 + m7 + m8 + m9 + m10 + m11 + m12 + m13 + m14 + m15 + m16 + m17 + m18 + m19 + m20 + m21 + m22 + m23 + m24 + m25 + m26 + m27 + m28 + m29 + m30 + m31 + m32 + m33 + m34 + m35 + m36 + m37 + m38 + m39 + m40 + m41 + m42 + m43 + m44 + m45 + m46 + m47 + m48 + m49 + m50 + m51 + m52 + m53 + m54 + m55 + m56 + m57 + m58 + m59 + m60 + m61 + m62 + m63 + m64 + m65 + m66 + m67 + m68 + m69 + m70 + m71 + m72 + m73 + m74 + m75 + m76 + m77 + m78 + m79 + m80 + m81 + m82 + m83 + m84 + m85 + m86 + m87 + m88 + m89 + m90 + m91 + m92 + m93 + m94 + m95 + m96 + m97 + m98 + m99 + m100 + m101 + m102 + m103 + m104 + m105 + m106 + m107 + m108 + m109 + m110 + m111 + m112 + m113 + m114 + m115 + m116 >= 0
inc312: - c312 + m7 + m8 + m9 >= 0
inc313: - c313 + m1 + m33 + m39 >= 0
inc314: - c314 + m31 + m32 + m76 + m80 >= 0
inc315: - c315 + m55 + m81 >= 0
inc316: - c316 >= 0
inc317: - c317 + m48 + m96 + m114 >= 0
inc318: - c318 + m40 + m41 + m42 >= 0
inc319: - c319 >= 0
inc320: - c320 + m80 + m104 >= 0
inc321: - c321 >= 0
inc322: - c322 + m49 + m50 + m68 >= 0
inc323: - c323 + m13 + m19 >= 0
inc324: - c324 + m28 >= 0
inc325: - c325 >= 0
inc326: - c326 >= 0
inc327: - c327 + m51 >= 0
inc328: - c328 + m26 + m69 + m91 + m102 >= 0
inc329: - c329 >= 0
inc330: - c330 + m22 >= 0
inc331: - c331 >= 0
inc332: - c332 + m57 + m72 >= 0
inc333: - c333 + m44 + m51 + m62 + m63 >= 0
inc334: - c334 + m34 + m49 >= 0
inc335: - c335 + m18 + m20 + m36 + m86 + m98 >= 0
inc336: - c336 + m11 + m13 + m15 + m22 + m35 + m61 + m88 + m112 >= 0
inc337: - c337 >= 0
inc338: - c338 >= 0
inc339: - c339 + m101 >= 0
inc340: - c340 >= 0
inc341: - c341 + m29 + m95 + m113 >= 0
inc342: - c342 >= 0
inc343: - c343 + m93 + m106 >= 0
inc344: - c344 >= 0
inc345: - c345 + m1 + m33 >= 0
inc346: - c346 >= 0
Binary
c0
c1
c2
c3
c4
c5
c6
c7
c8
c9
c10
c11
c12
c13
c14
c15
c16
c17
c18
c19
c20
c21
c22
c23
c24
c25
c26
c27
c28
c29
c30
c31
c32
c33
c34
c35
c36
c37
c38
c39
c40
c41
c42
c43
c44
c45
c46
c47
c48
c49
c50
c51
c52
c53
c54
c55
c56
c57
c58
c59
c60
c61
c62
c63
c64
c65
c66
c67
c68
c69
c70
c71
c72
c73
c74
c75
c76
c77
c78
c79
c80
c81
c82
c83
c84
c85
c86
c87
c88
c89
c90
c91
c92
c93
c94
c95
c96
c97
c98
c99
c100
c101
c102
c103
c104
c105
c106
c107
c108
c109
c110
c111
c112
c113
c114
c115
c116
c117
c118
c119
c120
c121
c122
c123
c124
c125
c126
c127
c128
c129
c130
c131
c132
c133
c134
c135
c136
c137
c138
c139
c140
c141
c142
c143
c144
c145
c146
c147
c148
c149
c150
c151
c152
c153
c154
c155
c156
c157
c158
c159
c160
c161
c162
c163
c164
c165
c166
c167
c168
c169
c170
c171
c172
c173
c174
c175
c176
c177
c178
c179
c180
c181
c182
c183
c184
c185
c186
c187
c188
c189
c190
c191
c192
c193
c194
c195
c196
c197
c198
c199
c200
c201
c202
c203
c204
c205
c206
c207
c208
c209
c210
c211
c212
c213
c214
c215
c216
c217
c218
c219
c220
c221
c222
c223
c224
c225
c226
c227
c228
c229
c230
c231
c232
c233
c234
c235
c236
c237
c238
c239
c240
c241
c242
c243
c244
c245
c246
c247
c248
c249
c250
c251
c252
c253
c254
c255
c256
c257
c258
c259
c260
c261
c262
c263
c264
c265
c266
c267
c268
c269
c270
c271
c272
c273
c274
c275
c276
c277
c278
c279
c280
c281
c282
c283
c284
c285
c286
c287
c288
c289
c290
c291
c292
c293
c294
c295
c296
c297
c298
c299
c300
c301
c302
c303
c304
c305
c306
c307
c308
c309
c310
c311
c312
c313
c314
c315
c316
c317
c318
c319
c320
c321
c322
c323
c324
c325
c326
c327
c328
c329
c330
c331
c332
c333
c334
c335
c336
c337
c338
c339
c340
c341
c342
c343
c344
c345
c346
m0
m1
m2
m3
m4
m5
m6
m7
m8
m9
m10
m11
m12
m13
m14
m15
m16
m17
m18
m19
m20
m21
m22
m23
m24
m25
m26
m27
m28
m29
m30
m31
m32
m33
m34
m35
m36
m37
m38
m39
m40
m41
m42
m43
m44
m45
m46
m47
m48
m49
m50
m51
m52
m53
m54
m55
m56
m57
m58
m59
m60
m61
m62
m63
m64
m65
m66
m67
m68
m69
m70
m71
m72
m73
m74
m75
m76
m77
m78
m79
m80
m81
m82
m83
m84
m85
m86
m87
m88
m89
m90
m91
m92
m93
m94
m95
m96
m97
m98
m99
m100
m101
m102
m103
m104
m105
m106
m107
m108
m109
m110
m111
m112
m113
m114
m115
m116
End
